c Sudoku solution
p cnf 729 0
213 0
225 0
234 0
246 0
316 0
329 0
375 0
394 0
454 0
536 0
561 0
577 0
593 0
624 0
584 0
648 0
655 0
515 0
528 0
671 0
699 0
839 0
419 0
857 0
896 0
914 0
931 0
735 0
111 0
421 0
952 0
559 0
542 0
756 0
926 0
973 0
989 0
997 0
885 0
841 0
968 0
945 0
165 0
144 0
269 0
362 0
347 0
338 0
443 0
633 0
749 0
179 0
186 0
383 0
153 0
351 0
258 0
198 0
272 0
476 0
682 0
432 0
617 0
467 0
666 0
727 0
823 0
763 0
864 0
774 0
878 0
718 0
812 0
122 0
137 0
781 0
792 0
287 0
291 0
488 0
495 0
